NAME : single
TYPE : ATSP
DIMENSION : 5
EDGE_WEIGHT_TYPE : EXPLICIT
EDGE_WEIGHT_FORMAT : FULL_MATRIX
EDGE_WEIGHT_SECTION
0 239 338 275 0 
199908 0 225 36 239 
199903 225 0 189 338 
199877 36 189 0 275 
199902 239 338 275 0 
EOF